(set-logic QF_S)
(declare-fun var0 () Int)
(declare-fun var1 () Int)
(declare-fun var2 () String)
(declare-fun var3 () Int)
(declare-fun var4 () Int)
(declare-fun var5 () String)
(declare-fun var6 () String)
(declare-fun var7 () String)
(assert (<= var0 var1))
(assert (str.prefixof (str.substr (str.substr var2 var3 var4) (str.len var5) (str.to.int var6)) (str.replace var7 var2 var7)))
(assert (str.suffixof var6 var5))
(assert (not (str.in.re var5 re.allchar)))
(check-sat)